INPUT_PARAMETERS
#Parameters  (General)
pseudo_dir      ../../../tests/PP_ORB	
symmetry        1	
#Parameters  (Accuracy)
basis_type      pw
ecutwfc         6 
scf_thr         1e-7
scf_nmax        100
device          gpu
ks_solver       cg
precision       single
